Grasp exp. instance_n_15_m_5_id_5.lp tipoLifted 0 szPool 5 nIteration 50 alpha 0.6 
Academic license - for non-commercial use only
Read LP format model from file ../input/instancesGenerated/instance_n_15_m_5_id_5.lp
Reading time = 0.00 seconds
: 5 rows, 15 columns, 75 nonzeros
Optimize a model with 5 rows, 15 columns and 75 nonzeros
Variable types: 0 continuous, 15 integer (15 binary)
Coefficient statistics:
  Matrix range     [1e+00, 1e+01]
  Objective range  [1e+00, 9e+00]
  Bounds range     [1e+00, 1e+00]
  RHS range        [4e+01, 5e+01]
Found heuristic solution: objective 34.0000000

Explored 0 nodes (0 simplex iterations) in 0.00 seconds
Thread count was 1 (of 8 available processors)

Solution count 1: 34 
No other solutions better than 0

Solution limit reached
Best objective 3.400000000000e+01, best bound -, gap -
C_1:	 1.00 x_1  = 0.622685 + 6.00 x_2  = 0.000000 + 9.00 x_3  = 0.060185 + 2.00 x_4  = 1.000000 + 8.00 x_5  = 1.000000 + 8.00 x_6  = 0.770833 + 9.00 x_7  = 0.000000 + 8.00 x_8  = 0.000000 + 8.00 x_9  = 0.270833 + 4.00 x_10  = 1.000000 + 7.00 x_11  = 0.000000 + 10.00 x_12  = 1.000000 + 5.00 x_13  = 0.900463 + 1.00 x_14  = 0.000000 + 10.00 x_15  = 1.000000 <= 48.00
C_2:	 9.00 x_1  = 0.622685 + 6.00 x_2  = 0.000000 + 2.00 x_3  = 0.060185 + 5.00 x_4  = 1.000000 + 4.00 x_5  = 1.000000 + 9.00 x_6  = 0.770833 + 4.00 x_7  = 0.000000 + 8.00 x_8  = 0.000000 + 9.00 x_9  = 0.270833 + 10.00 x_10  = 1.000000 + 8.00 x_11  = 0.000000 + 2.00 x_12  = 1.000000 + 1.00 x_13  = 0.900463 + 3.00 x_14  = 0.000000 + 5.00 x_15  = 1.000000 <= 42.00
C_3:	 9.00 x_1  = 0.622685 + 5.00 x_2  = 0.000000 + 10.00 x_3  = 0.060185 + 9.00 x_4  = 1.000000 + 6.00 x_5  = 1.000000 + 7.00 x_6  = 0.770833 + 8.00 x_7  = 0.000000 + 5.00 x_8  = 0.000000 + 7.00 x_9  = 0.270833 + 6.00 x_10  = 1.000000 + 8.00 x_11  = 0.000000 + 5.00 x_12  = 1.000000 + 5.00 x_13  = 0.900463 + 4.00 x_14  = 0.000000 + 5.00 x_15  = 1.000000 <= 49.00
C_4:	 6.00 x_1  = 0.622685 + 4.00 x_2  = 0.000000 + 3.00 x_3  = 0.060185 + 7.00 x_4  = 1.000000 + 1.00 x_5  = 1.000000 + 6.00 x_6  = 0.770833 + 6.00 x_7  = 0.000000 + 6.00 x_8  = 0.000000 + 5.00 x_9  = 0.270833 + 6.00 x_10  = 1.000000 + 8.00 x_11  = 0.000000 + 4.00 x_12  = 1.000000 + 9.00 x_13  = 0.900463 + 8.00 x_14  = 0.000000 + 6.00 x_15  = 1.000000 <= 42.00
C_5:	 3.00 x_1  = 0.622685 + 8.00 x_2  = 0.000000 + 3.00 x_3  = 0.060185 + 3.00 x_4  = 1.000000 + 6.00 x_5  = 1.000000 + 8.00 x_6  = 0.770833 + 1.00 x_7  = 0.000000 + 4.00 x_8  = 0.000000 + 4.00 x_9  = 0.270833 + 7.00 x_10  = 1.000000 + 9.00 x_11  = 0.000000 + 1.00 x_12  = 1.000000 + 3.00 x_13  = 0.900463 + 5.00 x_14  = 0.000000 + 7.00 x_15  = 1.000000 <= 36.00
Solution initial: 55.701389 
Number Constraints Used in Cover:5
GRASP Method!
Number cuts repeat: 0
value: 55.153846
Number Constraints Used in Cover:12
GRASP Method!
Number cuts repeat: 0
value: 55.153846
Number Constraints Used in Cover:16
GRASP Method!
Number cuts repeat: 0
value: 55.153846
Number Constraints Used in Cover:22
GRASP Method!
Number cuts repeat: 0
value: 55.153846
Number Constraints Used in Cover:26
GRASP Method!
Number cuts repeat: 0
value: 55.153846
Number Constraints Used in Cover:34
GRASP Method!
Number cuts repeat: 0
value: 55.153846
Number Constraints Used in Cover:41
GRASP Method!
Number cuts repeat: 0
value: 55.153846
Number Constraints Used in Cover:49
GRASP Method!
Number cuts repeat: 0
value: 55.153846
Number Constraints Used in Cover:55
GRASP Method!
Number cuts repeat: 0
value: 55.153846
Number Constraints Used in Cover:59
GRASP Method!
Number cuts repeat: 0
value: 55.153846
Number Constraints Used in Cover:64
GRASP Method!
Number cuts repeat: 0
value: 55.153846
Number Constraints Used in Cover:68
GRASP Method!
Number cuts repeat: 0
value: 55.153846
Number Constraints Used in Cover:71
GRASP Method!
Number cuts repeat: 0
value: 55.153846
Number Constraints Used in Cover:80
GRASP Method!
Number cuts repeat: 0
value: 55.153846
Number Constraints Used in Cover:80
GRASP Method!
Number cuts repeat: 0
value: 55.153846
Number Constraints Used in Cover:85
GRASP Method!
Number cuts repeat: 0
value: 55.153846
Number Constraints Used in Cover:88
GRASP Method!
Number cuts repeat: 0
value: 55.153846
Number Constraints Used in Cover:91
GRASP Method!
Number cuts repeat: 0
value: 55.153846
Number Constraints Used in Cover:91
GRASP Method!
Number cuts repeat: 0
value: 55.153846
Number Constraints Used in Cover:98
GRASP Method!
Number cuts repeat: 0
value: 55.153846
Number Constraints Used in Cover:104
GRASP Method!
Number cuts repeat: 0
value: 55.153846
Number Constraints Used in Cover:114
GRASP Method!
Number cuts repeat: 0
value: 55.153846
Number Constraints Used in Cover:120
GRASP Method!
Number cuts repeat: 0
value: 55.153846
Number Constraints Used in Cover:126
GRASP Method!
Number cuts repeat: 0
value: 55.153846
Number Constraints Used in Cover:133
GRASP Method!
Number cuts repeat: 0
value: 55.153846
Number Constraints Used in Cover:139
GRASP Method!
Number cuts repeat: 0
value: 55.153846
Number Constraints Used in Cover:144
GRASP Method!
Number cuts repeat: 0
value: 55.153846
Number Constraints Used in Cover:146
GRASP Method!
Number cuts repeat: 0
value: 55.153846
Number Constraints Used in Cover:150
GRASP Method!
Number cuts repeat: 0
value: 55.153846
Number Constraints Used in Cover:156
GRASP Method!
Number cuts repeat: 0
value: 55.153846
Number Constraints Used in Cover:158
GRASP Method!
Number cuts repeat: 0
value: 55.153846
Number Constraints Used in Cover:162
GRASP Method!
Number cuts repeat: 0
value: 55.153846
Number Constraints Used in Cover:168
GRASP Method!
Number cuts repeat: 0
value: 55.153846
Number Constraints Used in Cover:168
GRASP Method!
Number cuts repeat: 0
value: 55.153846
Number Constraints Used in Cover:172
GRASP Method!
Number cuts repeat: 0
value: 55.153846
Number Constraints Used in Cover:172
GRASP Method!
Number cuts repeat: 0
value: 55.153846
Number Constraints Used in Cover:176
GRASP Method!
Number cuts repeat: 0
value: 55.153846
Number Constraints Used in Cover:177
GRASP Method!
Number cuts repeat: 0
value: 55.153846
Number Constraints Used in Cover:177
GRASP Method!
Number cuts repeat: 0
value: 55.153846
Number Constraints Used in Cover:181
GRASP Method!
Number cuts repeat: 0
value: 55.153846
Number Constraints Used in Cover:183
GRASP Method!
Number cuts repeat: 0
value: 55.153846
Number Constraints Used in Cover:187
GRASP Method!
Number cuts repeat: 0
value: 55.153846
Number Constraints Used in Cover:190
GRASP Method!
Number cuts repeat: 0
value: 55.153846
Number Constraints Used in Cover:195
GRASP Method!
Number cuts repeat: 0
value: 55.153846
Number Constraints Used in Cover:198
GRASP Method!
Number cuts repeat: 0
value: 55.153846
Number Constraints Used in Cover:205
GRASP Method!
Number cuts repeat: 0
value: 55.153846
Number Constraints Used in Cover:207
GRASP Method!
Number cuts repeat: 0
value: 55.153846
Number Constraints Used in Cover:210
GRASP Method!
Number cuts repeat: 0
value: 55.153846
Number Constraints Used in Cover:210
GRASP Method!
Number cuts repeat: 0
value: 55.153846
Number Constraints Used in Cover:213
GRASP Method!
Number cuts repeat: 0
value: 55.153846
Number Constraints Used in Cover:213
GRASP Method!
Number cuts repeat: 0
value: 55.153846
Number Constraints Used in Cover:214
GRASP Method!
Number cuts repeat: 0
value: 55.153846
Number Constraints Used in Cover:217
GRASP Method!
Number cuts repeat: 0
value: 55.153846
Number Constraints Used in Cover:218
GRASP Method!
Number cuts repeat: 0
value: 55.153846
Number Constraints Used in Cover:222
GRASP Method!
Number cuts repeat: 0
value: 55.153846
Number Constraints Used in Cover:224
GRASP Method!
Number cuts repeat: 0
value: 55.153846
Number Constraints Used in Cover:230
GRASP Method!
Number cuts repeat: 0
value: 55.153846
Number Constraints Used in Cover:230
GRASP Method!
Number cuts repeat: 0
value: 55.153846
Number Constraints Used in Cover:231
GRASP Method!
Number cuts repeat: 0
value: 55.153846
Number Constraints Used in Cover:235
GRASP Method!
Number cuts repeat: 0
value: 55.153846
Number Constraints Used in Cover:236
GRASP Method!
Number cuts repeat: 0
value: 55.153846
Number Constraints Used in Cover:236
GRASP Method!
Number cuts repeat: 0
value: 55.153846
Number Constraints Used in Cover:236
GRASP Method!
Number cuts repeat: 0
value: 55.153846
Number Constraints Used in Cover:236
GRASP Method!
Number cuts repeat: 0
value: 55.153846
Number Constraints Used in Cover:237
GRASP Method!
Number cuts repeat: 0
value: 55.153846
Number Constraints Used in Cover:237
GRASP Method!
Number cuts repeat: 0
value: 55.153846
Number Constraints Used in Cover:238
GRASP Method!
Number cuts repeat: 0
value: 55.153846
Number Constraints Used in Cover:238
GRASP Method!
Number cuts repeat: 0
value: 55.153846
Number Constraints Used in Cover:238
GRASP Method!
Number cuts repeat: 0
value: 55.153846
Number Constraints Used in Cover:239
GRASP Method!
Number cuts repeat: 0
value: 55.153846
Number Constraints Used in Cover:239
GRASP Method!
Number cuts repeat: 0
value: 55.153846
Number Constraints Used in Cover:240
GRASP Method!
Number cuts repeat: 0
value: 55.153846
Number Constraints Used in Cover:240
GRASP Method!
Number cuts repeat: 0
value: 55.153846
Number Constraints Used in Cover:241
GRASP Method!
Number cuts repeat: 0
value: 55.153846
Number Constraints Used in Cover:241
GRASP Method!
Number cuts repeat: 0
value: 55.153846
Number Constraints Used in Cover:241
GRASP Method!
Number cuts repeat: 0
value: 55.153846
Number Constraints Used in Cover:241
GRASP Method!
Number cuts repeat: 0
value: 55.153846
Number Constraints Used in Cover:248
GRASP Method!
Number cuts repeat: 0
value: 55.153846
Number Constraints Used in Cover:251
GRASP Method!
Number cuts repeat: 0
value: 55.153846
Number Constraints Used in Cover:255
GRASP Method!
Number cuts repeat: 0
value: 55.153846
Number Constraints Used in Cover:257
GRASP Method!
Number cuts repeat: 0
value: 55.153846
Number Constraints Used in Cover:260
GRASP Method!
Number cuts repeat: 0
value: 55.153846
Number Constraints Used in Cover:264
GRASP Method!
Number cuts repeat: 0
value: 55.153846
Number Constraints Used in Cover:267
GRASP Method!
Number cuts repeat: 0
value: 55.153846
Number Constraints Used in Cover:268
GRASP Method!
Number cuts repeat: 0
value: 55.153846
Number Constraints Used in Cover:269
GRASP Method!
Number cuts repeat: 0
value: 55.153846
Number Constraints Used in Cover:274
GRASP Method!
Number cuts repeat: 0
value: 55.153846
Number Constraints Used in Cover:280
GRASP Method!
Number cuts repeat: 0
value: 55.153846
Number Constraints Used in Cover:284
GRASP Method!
Number cuts repeat: 0
value: 55.153846
Number Constraints Used in Cover:286
GRASP Method!
Number cuts repeat: 0
value: 55.153846
Number Constraints Used in Cover:289
GRASP Method!
Number cuts repeat: 0
value: 55.153846
Number Constraints Used in Cover:291
GRASP Method!
Number cuts repeat: 0
value: 55.153846
Number Constraints Used in Cover:293
GRASP Method!
Number cuts repeat: 0
value: 55.153846
Number Constraints Used in Cover:296
GRASP Method!
Number cuts repeat: 0
value: 55.153846
Number Constraints Used in Cover:298
GRASP Method!
Number cuts repeat: 0
value: 55.153846
Number Constraints Used in Cover:305
GRASP Method!
Number cuts repeat: 0
value: 55.153846
Number Constraints Used in Cover:305
GRASP Method!
Number cuts repeat: 0
value: 55.153846
Number Constraints Used in Cover:309
GRASP Method!
Number cuts repeat: 0
value: 55.153846
Number Constraints Used in Cover:310
GRASP Method!
Number cuts repeat: 0
value: 55.153846
Number Constraints Used in Cover:312
GRASP Method!
Number cuts repeat: 0
value: 55.153846
Number Constraints Used in Cover:314
GRASP Method!
Number cuts repeat: 0
value: 55.153846
Number Constraints Used in Cover:317
GRASP Method!
Number cuts repeat: 0
value: 55.153846
Number Constraints Used in Cover:318
GRASP Method!
Number cuts repeat: 0
value: 55.153846
Number Constraints Used in Cover:319
GRASP Method!
Number cuts repeat: 0
value: 55.153846
Number Constraints Used in Cover:320
GRASP Method!
Number cuts repeat: 0
value: 55.153846
Number Constraints Used in Cover:324
GRASP Method!
Number cuts repeat: 0
value: 55.153846
Number Constraints Used in Cover:324
GRASP Method!
Number cuts repeat: 0
value: 55.153846
Number Constraints Used in Cover:325
GRASP Method!
Number cuts repeat: 0
value: 55.153846
Number Constraints Used in Cover:326
GRASP Method!
Number cuts repeat: 0
value: 55.153846
Number Constraints Used in Cover:326
GRASP Method!
Number cuts repeat: 0
value: 55.153846
Number Constraints Used in Cover:331
GRASP Method!
Number cuts repeat: 0
value: 55.153846
Number Constraints Used in Cover:333
GRASP Method!
Number cuts repeat: 0
value: 55.153846
Number Constraints Used in Cover:334
GRASP Method!
Number cuts repeat: 0
value: 55.153846
Number Constraints Used in Cover:334
GRASP Method!
Number cuts repeat: 0
value: 55.153846
Number Constraints Used in Cover:336
GRASP Method!
Number cuts repeat: 0
value: 55.153846
Number Constraints Used in Cover:336
GRASP Method!
Number cuts repeat: 0
value: 55.153846
Number Constraints Used in Cover:340
GRASP Method!
Number cuts repeat: 0
value: 55.153846
Number Constraints Used in Cover:340
GRASP Method!
Number cuts repeat: 0
value: 55.153846
Number Constraints Used in Cover:340
GRASP Method!
Number cuts repeat: 0
value: 55.153846
Number Constraints Used in Cover:340
GRASP Method!
Number cuts repeat: 0
value: 55.153846
Number Constraints Used in Cover:340
GRASP Method!
Number cuts repeat: 0
value: 55.153846
Number Constraints Used in Cover:340
GRASP Method!
Number cuts repeat: 0
value: 55.153846
Number Constraints Used in Cover:341
GRASP Method!
Number cuts repeat: 0
value: 55.153846
Number Constraints Used in Cover:341
GRASP Method!
Number cuts repeat: 0
value: 55.153846
Number Constraints Used in Cover:344
GRASP Method!
Number cuts repeat: 0
value: 55.153846
Number Constraints Used in Cover:344
GRASP Method!
Number cuts repeat: 0
value: 55.153846
Number Constraints Used in Cover:347
GRASP Method!
Number cuts repeat: 0
value: 55.153846
Number Constraints Used in Cover:348
GRASP Method!
Number cuts repeat: 0
value: 55.153846
Number Constraints Used in Cover:348
GRASP Method!
Number cuts repeat: 0
value: 55.153846
Number Constraints Used in Cover:350
GRASP Method!
Number cuts repeat: 0
value: 55.153846
Number Constraints Used in Cover:350
GRASP Method!
Number cuts repeat: 0
value: 55.153846
Number Constraints Used in Cover:351
GRASP Method!
Number cuts repeat: 0
value: 55.153846
Number Constraints Used in Cover:352
GRASP Method!
Number cuts repeat: 0
value: 55.153846
Number Constraints Used in Cover:353
GRASP Method!
Number cuts repeat: 0
value: 55.153846
Number Constraints Used in Cover:353
GRASP Method!
Number cuts repeat: 0
value: 55.153846
Number Constraints Used in Cover:353
GRASP Method!
Number cuts repeat: 0
value: 55.153846
Number Constraints Used in Cover:356
GRASP Method!
Number cuts repeat: 0
value: 55.153846
Number Constraints Used in Cover:362
GRASP Method!
Number cuts repeat: 0
value: 55.153846
Number Constraints Used in Cover:370
GRASP Method!
Number cuts repeat: 0
value: 55.153846
Number Constraints Used in Cover:373
GRASP Method!
Number cuts repeat: 0
value: 55.153846
Number Constraints Used in Cover:377
GRASP Method!
Number cuts repeat: 0
value: 55.153846
Number Constraints Used in Cover:383
GRASP Method!
Number cuts repeat: 0
value: 55.153846
Number Constraints Used in Cover:384
GRASP Method!
Number cuts repeat: 0
value: 55.153846
Number Constraints Used in Cover:390
GRASP Method!
Number cuts repeat: 0
value: 55.153846
Number Constraints Used in Cover:400
GRASP Method!
Number cuts repeat: 0
value: 55.153846
Number Constraints Used in Cover:403
GRASP Method!
Number cuts repeat: 0
value: 55.153846
Number Constraints Used in Cover:407
GRASP Method!
Number cuts repeat: 0
value: 55.153846
Number Constraints Used in Cover:419
GRASP Method!
Number cuts repeat: 0
value: 55.153846
Number Constraints Used in Cover:434
GRASP Method!
Number cuts repeat: 0
value: 55.153846
Number Constraints Used in Cover:448
GRASP Method!
Number cuts repeat: 0
value: 55.153846
Number Constraints Used in Cover:457
GRASP Method!
Number cuts repeat: 0
value: 55.153846
Number Constraints Used in Cover:463
GRASP Method!
Number cuts repeat: 0
value: 55.153846
Number Constraints Used in Cover:471
GRASP Method!
Number cuts repeat: 0
value: 55.153846
Number Constraints Used in Cover:484
GRASP Method!
Number cuts repeat: 0
value: 55.153846
Number Constraints Used in Cover:494
GRASP Method!
Number cuts repeat: 0
value: 55.153846
Number Constraints Used in Cover:500
GRASP Method!
Number cuts repeat: 0
value: 55.153846
Number Constraints Used in Cover:513
GRASP Method!
Number cuts repeat: 0
value: 55.153846
Number Constraints Used in Cover:523
GRASP Method!
Number cuts repeat: 0
value: 55.153846
Number Constraints Used in Cover:533
GRASP Method!
Number cuts repeat: 0
value: 55.153846
Number Constraints Used in Cover:547
GRASP Method!
Number cuts repeat: 0
value: 55.153846
Number Constraints Used in Cover:558
GRASP Method!
Number cuts repeat: 0
value: 55.153846
Number Constraints Used in Cover:565
GRASP Method!
Number cuts repeat: 0
value: 55.153846
Number Constraints Used in Cover:579
GRASP Method!
Number cuts repeat: 0
value: 55.153846
Number Constraints Used in Cover:586
GRASP Method!
Number cuts repeat: 0
value: 55.153846
Number Constraints Used in Cover:591
GRASP Method!
Number cuts repeat: 0
value: 55.153846
Number Constraints Used in Cover:600
GRASP Method!
Number cuts repeat: 0
value: 55.153846
Number Constraints Used in Cover:613
GRASP Method!
Number cuts repeat: 0
value: 55.153846
Number Constraints Used in Cover:617
GRASP Method!
Number cuts repeat: 0
value: 55.153846
Number Constraints Used in Cover:620
GRASP Method!
Number cuts repeat: 0
value: 55.153846
Number Constraints Used in Cover:626
GRASP Method!
Number cuts repeat: 0
value: 55.153846
Number Constraints Used in Cover:635
GRASP Method!
Number cuts repeat: 0
value: 55.153846
Number Constraints Used in Cover:640
GRASP Method!
Number cuts repeat: 0
value: 55.153846
Number Constraints Used in Cover:643
GRASP Method!
Number cuts repeat: 0
value: 55.153846
Number Constraints Used in Cover:647
GRASP Method!
Number cuts repeat: 0
value: 55.153846
Number Constraints Used in Cover:655
GRASP Method!
Number cuts repeat: 0
value: 55.153846
Number Constraints Used in Cover:660
GRASP Method!
Number cuts repeat: 0
value: 55.153846
Number Constraints Used in Cover:668
GRASP Method!
Number cuts repeat: 0
value: 55.153846
Number Constraints Used in Cover:672
GRASP Method!
Number cuts repeat: 0
value: 55.153846
Number Constraints Used in Cover:676
GRASP Method!
Number cuts repeat: 0
value: 55.153846
Number Constraints Used in Cover:679
GRASP Method!
Number cuts repeat: 0
value: 55.153846
Number Constraints Used in Cover:682
GRASP Method!
Number cuts repeat: 0
value: 55.153846
Number Constraints Used in Cover:688
GRASP Method!
Number cuts repeat: 0
value: 55.153846
Number Constraints Used in Cover:693
GRASP Method!
Number cuts repeat: 0
value: 55.153846
Number Constraints Used in Cover:697
GRASP Method!
Number cuts repeat: 0
value: 55.153846
Number Cuts Final: 697
